7
2147483647 83 71 70 97 95 26 
83 2147483647 25 31 54 86 20 
71 25 2147483647 15 86 28 72 
70 31 15 2147483647 91 35 24 
97 54 86 91 2147483647 58 64 
95 86 28 35 58 2147483647 6 
26 20 72 24 64 6 2147483647 
